c nIsolatedPIs 0
c maxPI 32
p cnf 206 523
c gate 33 6 22 0
6 -33 0
22 -33 0
-6 -22 33 0
c gate 34 -6 -22 0
-6 -34 0
-22 -34 0
6 22 34 0
c gate 35 -33 -34 0
-33 -35 0
-34 -35 0
33 34 35 0
c gate 36 5 21 0
5 -36 0
21 -36 0
-5 -21 36 0
c gate 37 -5 -21 0
-5 -37 0
-21 -37 0
5 21 37 0
c gate 38 4 20 0
4 -38 0
20 -38 0
-4 -20 38 0
c gate 39 -4 -20 0
-4 -39 0
-20 -39 0
4 20 39 0
c gate 40 -38 -39 0
-38 -40 0
-39 -40 0
38 39 40 0
c gate 41 3 19 0
3 -41 0
19 -41 0
-3 -19 41 0
c gate 42 2 18 0
2 -42 0
18 -42 0
-2 -18 42 0
c gate 43 -2 -18 0
-2 -43 0
-18 -43 0
2 18 43 0
c gate 44 1 17 0
1 -44 0
17 -44 0
-1 -17 44 0
c gate 45 -43 44 0
-43 -45 0
44 -45 0
43 -44 45 0
c gate 46 -42 -45 0
-42 -46 0
-45 -46 0
42 45 46 0
c gate 47 18 -46 0
18 -47 0
-46 -47 0
-18 46 47 0
c gate 48 -41 -47 0
-41 -48 0
-47 -48 0
41 47 48 0
c gate 49 40 -48 0
40 -49 0
-48 -49 0
-40 48 49 0
c gate 50 -38 -49 0
-38 -50 0
-49 -50 0
38 49 50 0
c gate 51 -37 -50 0
-37 -51 0
-50 -51 0
37 50 51 0
c gate 52 -36 -51 0
-36 -52 0
-51 -52 0
36 51 52 0
c gate 53 35 -52 0
35 -53 0
-52 -53 0
-35 52 53 0
c gate 54 -35 52 0
-35 -54 0
52 -54 0
35 -52 54 0
c gate 55 -53 -54 0
-53 -55 0
-54 -55 0
53 54 55 0
c gate 56 -3 -19 0
-3 -56 0
-19 -56 0
3 19 56 0
c gate 57 -46 -56 0
-46 -57 0
-56 -57 0
46 56 57 0
c gate 58 -41 -57 0
-41 -58 0
-57 -58 0
41 57 58 0
c gate 59 40 58 0
40 -59 0
58 -59 0
-40 -58 59 0
c gate 60 -39 -59 0
-39 -60 0
-59 -60 0
39 59 60 0
c gate 61 -36 -37 0
-36 -61 0
-37 -61 0
36 37 61 0
c gate 62 -60 61 0
-60 -62 0
61 -62 0
60 -61 62 0
c gate 63 -37 -62 0
-37 -63 0
-62 -63 0
37 62 63 0
c gate 64 35 -63 0
35 -64 0
-63 -64 0
-35 63 64 0
c gate 65 -35 63 0
-35 -65 0
63 -65 0
35 -63 65 0
c gate 66 -64 -65 0
-64 -66 0
-65 -66 0
64 65 66 0
c gate 67 -55 -66 0
-55 -67 0
-66 -67 0
55 66 67 0
c gate 68 55 66 0
55 -68 0
66 -68 0
-55 -66 68 0
c gate 69 -50 62 0
-50 -69 0
62 -69 0
50 -62 69 0
c gate 70 50 -61 0
50 -70 0
-61 -70 0
-50 61 70 0
c gate 71 60 70 0
60 -71 0
70 -71 0
-60 -70 71 0
c gate 72 -69 -71 0
-69 -72 0
-71 -72 0
69 71 72 0
c gate 73 -68 -72 0
-68 -73 0
-72 -73 0
68 72 73 0
c gate 74 -67 -73 0
-67 -74 0
-73 -74 0
67 73 74 0
c gate 75 -40 -58 0
-40 -75 0
-58 -75 0
40 58 75 0
c gate 76 -59 -75 0
-59 -76 0
-75 -76 0
59 75 76 0
c gate 77 -40 48 0
-40 -77 0
48 -77 0
40 -48 77 0
c gate 78 -49 -77 0
-49 -78 0
-77 -78 0
49 77 78 0
c gate 79 76 78 0
76 -79 0
78 -79 0
-76 -78 79 0
c gate 80 -76 -78 0
-76 -80 0
-78 -80 0
76 78 80 0
c gate 81 -79 -80 0
-79 -81 0
-80 -81 0
79 80 81 0
c gate 82 40 -81 0
40 -82 0
-81 -82 0
-40 81 82 0
c gate 83 -42 45 0
-42 -83 0
45 -83 0
42 -45 83 0
c gate 84 -41 -56 0
-41 -84 0
-56 -84 0
41 56 84 0
c gate 85 83 84 0
83 -85 0
84 -85 0
-83 -84 85 0
c gate 86 -79 -85 0
-79 -86 0
-85 -86 0
79 85 86 0
c gate 87 -80 -86 0
-80 -87 0
-86 -87 0
80 86 87 0
c gate 88 -82 -87 0
-82 -88 0
-87 -88 0
82 87 88 0
c gate 89 15 31 0
15 -89 0
31 -89 0
-15 -31 89 0
c gate 90 -15 -31 0
-15 -90 0
-31 -90 0
15 31 90 0
c gate 91 -14 -30 0
-14 -91 0
-30 -91 0
14 30 91 0
c gate 92 -90 -91 0
-90 -92 0
-91 -92 0
90 91 92 0
c gate 93 14 30 0
14 -93 0
30 -93 0
-14 -30 93 0
c gate 94 13 29 0
13 -94 0
29 -94 0
-13 -29 94 0
c gate 95 -93 -94 0
-93 -95 0
-94 -95 0
93 94 95 0
c gate 96 -11 -27 0
-11 -96 0
-27 -96 0
11 27 96 0
c gate 97 -10 -26 0
-10 -97 0
-26 -97 0
10 26 97 0
c gate 98 -96 -97 0
-96 -98 0
-97 -98 0
96 97 98 0
c gate 99 9 25 0
9 -99 0
25 -99 0
-9 -25 99 0
c gate 100 10 26 0
10 -100 0
26 -100 0
-10 -26 100 0
c gate 101 -99 -100 0
-99 -101 0
-100 -101 0
99 100 101 0
c gate 102 -8 -24 0
-8 -102 0
-24 -102 0
8 24 102 0
c gate 103 -9 -25 0
-9 -103 0
-25 -103 0
9 25 103 0
c gate 104 -102 -103 0
-102 -104 0
-103 -104 0
102 103 104 0
c gate 105 8 24 0
8 -105 0
24 -105 0
-8 -24 105 0
c gate 106 -102 -105 0
-102 -106 0
-105 -106 0
102 105 106 0
c gate 107 7 23 0
7 -107 0
23 -107 0
-7 -23 107 0
c gate 108 -7 -23 0
-7 -108 0
-23 -108 0
7 23 108 0
c gate 109 -34 -64 0
-34 -109 0
-64 -109 0
34 64 109 0
c gate 110 -108 109 0
-108 -110 0
109 -110 0
108 -109 110 0
c gate 111 -107 -110 0
-107 -111 0
-110 -111 0
107 110 111 0
c gate 112 106 111 0
106 -112 0
111 -112 0
-106 -111 112 0
c gate 113 104 -112 0
104 -113 0
-112 -113 0
-104 112 113 0
c gate 114 101 -113 0
101 -114 0
-113 -114 0
-101 113 114 0
c gate 115 98 -114 0
98 -115 0
-114 -115 0
-98 114 115 0
c gate 116 11 27 0
11 -116 0
27 -116 0
-11 -27 116 0
c gate 117 12 28 0
12 -117 0
28 -117 0
-12 -28 117 0
c gate 118 -116 -117 0
-116 -118 0
-117 -118 0
116 117 118 0
c gate 119 -115 118 0
-115 -119 0
118 -119 0
115 -118 119 0
c gate 120 -13 -29 0
-13 -120 0
-29 -120 0
13 29 120 0
c gate 121 -12 -28 0
-12 -121 0
-28 -121 0
12 28 121 0
c gate 122 -120 -121 0
-120 -122 0
-121 -122 0
120 121 122 0
c gate 123 -119 122 0
-119 -123 0
122 -123 0
119 -122 123 0
c gate 124 95 -123 0
95 -124 0
-123 -124 0
-95 123 124 0
c gate 125 92 -124 0
92 -125 0
-124 -125 0
-92 124 125 0
c gate 126 -89 -125 0
-89 -126 0
-125 -126 0
89 125 126 0
c gate 127 -16 -32 0
-16 -127 0
-32 -127 0
16 32 127 0
c gate 128 16 32 0
16 -128 0
32 -128 0
-16 -32 128 0
c gate 129 -127 -128 0
-127 -129 0
-128 -129 0
127 128 129 0
c gate 130 126 -129 0
126 -130 0
-129 -130 0
-126 129 130 0
c gate 131 -126 129 0
-126 -131 0
129 -131 0
126 -129 131 0
c gate 132 -130 -131 0
-130 -132 0
-131 -132 0
130 131 132 0
c gate 133 98 -116 0
98 -133 0
-116 -133 0
-98 116 133 0
c gate 134 -107 -108 0
-107 -134 0
-108 -134 0
107 108 134 0
c gate 135 -33 -53 0
-33 -135 0
-53 -135 0
33 53 135 0
c gate 136 134 -135 0
134 -136 0
-135 -136 0
-134 135 136 0
c gate 137 -107 -136 0
-107 -137 0
-136 -137 0
107 136 137 0
c gate 138 -105 137 0
-105 -138 0
137 -138 0
105 -137 138 0
c gate 139 104 -138 0
104 -139 0
-138 -139 0
-104 138 139 0
c gate 140 101 -139 0
101 -140 0
-139 -140 0
-101 139 140 0
c gate 141 133 -140 0
133 -141 0
-140 -141 0
-133 140 141 0
c gate 142 118 -141 0
118 -142 0
-141 -142 0
-118 141 142 0
c gate 143 122 -142 0
122 -143 0
-142 -143 0
-122 142 143 0
c gate 144 95 -143 0
95 -144 0
-143 -144 0
-95 143 144 0
c gate 145 -91 -144 0
-91 -145 0
-144 -145 0
91 144 145 0
c gate 146 -89 -145 0
-89 -146 0
-145 -146 0
89 145 146 0
c gate 147 -90 -146 0
-90 -147 0
-146 -147 0
90 146 147 0
c gate 148 -129 147 0
-129 -148 0
147 -148 0
129 -147 148 0
c gate 149 129 -147 0
129 -149 0
-147 -149 0
-129 147 149 0
c gate 150 -148 -149 0
-148 -150 0
-149 -150 0
148 149 150 0
c gate 151 -132 -150 0
-132 -151 0
-150 -151 0
132 150 151 0
c gate 152 -89 -120 0
-89 -152 0
-120 -152 0
89 120 152 0
c gate 153 92 152 0
92 -153 0
152 -153 0
-92 -152 153 0
c gate 154 95 153 0
95 -154 0
153 -154 0
-95 -153 154 0
c gate 155 141 -154 0
141 -155 0
-154 -155 0
-141 154 155 0
c gate 156 -117 -121 0
-117 -156 0
-121 -156 0
117 121 156 0
c gate 157 -116 156 0
-116 -157 0
156 -157 0
116 -156 157 0
c gate 158 -155 157 0
-155 -158 0
157 -158 0
155 -157 158 0
c gate 159 115 154 0
115 -159 0
154 -159 0
-115 -154 159 0
c gate 160 -115 -141 0
-115 -160 0
-141 -160 0
115 141 160 0
c gate 161 -159 -160 0
-159 -161 0
-160 -161 0
159 160 161 0
c gate 162 158 161 0
158 -162 0
161 -162 0
-158 -161 162 0
c gate 163 -151 162 0
-151 -163 0
162 -163 0
151 -162 163 0
c gate 164 132 150 0
132 -164 0
150 -164 0
-132 -150 164 0
c gate 165 -106 -111 0
-106 -165 0
-111 -165 0
106 111 165 0
c gate 166 -112 -165 0
-112 -166 0
-165 -166 0
112 165 166 0
c gate 167 106 -137 0
106 -167 0
-137 -167 0
-106 137 167 0
c gate 168 -106 137 0
-106 -168 0
137 -168 0
106 -137 168 0
c gate 169 -167 -168 0
-167 -169 0
-168 -169 0
167 168 169 0
c gate 170 166 169 0
166 -170 0
169 -170 0
-166 -169 170 0
c gate 171 -166 -169 0
-166 -171 0
-169 -171 0
166 169 171 0
c gate 172 -170 -171 0
-170 -172 0
-171 -172 0
170 171 172 0
c gate 173 106 -172 0
106 -173 0
-172 -173 0
-106 172 173 0
c gate 174 101 -103 0
101 -174 0
-103 -174 0
-101 103 174 0
c gate 175 133 174 0
133 -175 0
174 -175 0
-133 -174 175 0
c gate 176 110 -175 0
110 -176 0
-175 -176 0
-110 175 176 0
c gate 177 -136 -156 0
-136 -177 0
-156 -177 0
136 156 177 0
c gate 178 -176 -177 0
-176 -178 0
-177 -178 0
176 177 178 0
c gate 179 173 178 0
173 -179 0
178 -179 0
-173 -178 179 0
c gate 180 -164 179 0
-164 -180 0
179 -180 0
164 -179 180 0
c gate 181 -163 180 0
-163 -181 0
180 -181 0
163 -180 181 0
c gate 182 -134 135 0
-134 -182 0
135 -182 0
134 -135 182 0
c gate 183 -136 -182 0
-136 -183 0
-182 -183 0
136 182 183 0
c gate 184 -109 134 0
-109 -184 0
134 -184 0
109 -134 184 0
c gate 185 109 -134 0
109 -185 0
-134 -185 0
-109 134 185 0
c gate 186 -184 -185 0
-184 -186 0
-185 -186 0
184 185 186 0
c gate 187 183 186 0
183 -187 0
186 -187 0
-183 -186 187 0
c gate 188 -183 -186 0
-183 -188 0
-186 -188 0
183 186 188 0
c gate 189 74 -188 0
74 -189 0
-188 -189 0
-74 188 189 0
c gate 190 -46 -84 0
-46 -190 0
-84 -190 0
46 84 190 0
c gate 191 -18 -46 0
-18 -191 0
-46 -191 0
18 46 191 0
c gate 192 -190 -191 0
-190 -192 0
-191 -192 0
190 191 192 0
c gate 193 88 -192 0
88 -193 0
-192 -193 0
-88 192 193 0
c gate 194 189 -193 0
189 -194 0
-193 -194 0
-189 193 194 0
c gate 195 -187 -194 0
-187 -195 0
-194 -195 0
187 194 195 0
c gate 196 -170 195 0
-170 -196 0
195 -196 0
170 -195 196 0
c gate 197 -171 -173 0
-171 -197 0
-173 -197 0
171 173 197 0
c gate 198 -196 197 0
-196 -198 0
197 -198 0
196 -197 198 0
c gate 199 -181 -198 0
-181 -199 0
-198 -199 0
181 198 199 0
c gate 200 -88 199 0
-88 -200 0
199 -200 0
88 -199 200 0
c gate 201 74 200 0
74 -201 0
200 -201 0
-74 -200 201 0
c gate 202 -187 -188 0
-187 -202 0
-188 -202 0
187 188 202 0
c gate 203 74 -193 0
74 -203 0
-193 -203 0
-74 193 203 0
c gate 204 -199 -203 0
-199 -204 0
-203 -204 0
199 203 204 0
c gate 205 -202 -204 0
-202 -205 0
-204 -205 0
202 204 205 0
c gate 206 -201 205 0
-201 -206 0
205 -206 0
201 -205 206 0
c PO
206 0
